100
128
45
47
45
39
12
48
2
62
60
36
2
12
26
18
62
13
31
58
12
64
27
25
26
22
9
49
16
63
62
17
5
59
16
36
38
4
47
14
16
46
35
19
14
13
14
33
61
19
60
27
23
63
17
52
15
42
29
30
31
37
29
31
26
23
37
19
52
28
21
13
17
32
55
24
32
17
22
16
13
40
12
6
56
22
49
23
25
35
33
60
61
30
58
63
42
41
63
44
33
64